Maximize
  12 x_medicine_A + 8 x_medicine_B.
Subject To
  c1: 30 x_medicine_A + 40 x_medicine_B. <= 300
  c2: 50 x_medicine_A + 30 x_medicine_B. <= 400
  c3: x_medicine_A <= 5
  c4: x_medicine_B. - x_medicine_A >= 0
End